50
2361 1032 3961 1550 666 4016 9180 8005 7652 2220 5367 2767 1727 1062 2145 9275 8290 8067 8005 1935 3099 6270 7319 8547 8801 868 6059 6718 5060 1778 4736 894 9346 8655 5477 3003 9089 5724 8824 8481 5084 4140 5990 4311 1614 3052 8126 433 464 6264 
157392 68796 264053 103328 44397 267719 611969 533639 510107 147992 357782 184457 115127 70796 142992 618302 552639 537773 533639 128993 206589 417979 487908 569771 586703 57863 403913 447844 337316 118527 315717 59597 623035 576971 365115 200189 605903 381580 588237 565371 338916 275986 399313 287385 107594 203456 541706 28865 30931 417579 
122529
